5 5
3 45 1 8 4 93 2 53 0 55
3 32 0 51 1 44 2 82 4 70
4 18 2 83 1 22 0 37 3 96
2 56 0 59 1 3 4 28 3 74
4 35 1 61 0 93 3 54 2 63
-1
0 2 3 5
0 3 4 5
0 2 4 5
0 1 2 4 5
0 2 5
-2
80 224 318
148 254 343
108 228 395
69 119 184 232
125 371

397 9
6 16 22 13 4
21 7 17 1 12
15 11 8 3 24
5 0 19 23 14
20 10 18 2 9
